<number of tasks>
53

<cycle time>
2806

<task times>
1 971
2 142
3 142
4 142
5 103
6 96
7 99
8 1207
9 160
10 180
11 82
12 60
13 112
14 420
15 1556
16 236
17 259
18 125
19 601
20 80
21 80
22 70
23 89
24 89
25 105
26 330
27 132
28 69
29 99
30 70
31 70
32 158
33 191
34 70
35 53
36 50
37 125
38 353
39 70
40 128
41 65
42 1775
43 91
44 91
45 113
46 487
47 138
48 80
49 80
50 65
51 40
52 742
53 1085

<precedence relations>
1,2
1,3
1,4
1,5
1,6
1,7
2,36
3,36
4,9
5,9
6,9
7,9
8,9
9,10
10,11
11,12
12,13
12,14
12,15
13,16
13,17
13,18
14,22
15,16
15,17
16,29
16,30
16,31
17,19
18,42
19,20
19,21
19,22
20,23
21,24
22,25
23,36
24,36
25,26
26,27
27,28
28,29
28,30
28,31
28,32
28,33
28,34
29,35
30,35
31,35
32,35
33,35
34,35
35,36
36,37
37,38
37,39
37,40
38,41
39,41
40,41
41,42
42,43
42,44
42,45
42,46
42,47
43,48
44,49
45,51
45,52
46,50
47,51
47,52
48,51
48,52
49,51
49,52
50,51
50,52
51,53
52,53

<setup times forward>
1,6:27
2,6:27
2,9:27
2,10:27
2,11:27
2,12:27
2,13:27
2,14:10
2,15:27
2,16:27
2,17:27
2,18:10
2,19:10
2,20:10
2,21:10
2,22:10
2,23:10
2,24:10
2,25:10
2,26:10
2,27:10
2,28:10
2,29:10
2,30:10
2,31:10
2,32:10
2,33:10
2,34:10
2,35:10
2,36:10
3,6:27
3,9:27
3,10:27
3,11:27
3,12:27
3,13:27
3,14:10
3,15:27
3,16:27
3,17:27
3,18:10
3,19:10
3,20:10
3,21:10
3,22:10
3,23:10
3,24:10
3,25:10
3,26:10
3,27:10
3,28:10
3,29:10
3,30:10
3,31:10
3,32:10
3,33:10
3,34:10
3,35:10
3,36:10
4,6:27
4,9:27
5,6:27
5,9:27
6,2:27
6,3:27
6,4:27
6,5:27
6,7:27
6,8:27
7,6:27
7,9:27
8,6:27
8,9:27
9,2:27
9,3:27
10,2:27
10,3:27
11,2:27
11,3:27
12,2:27
12,3:27
12,14:37
13,2:27
13,3:27
13,14:37
13,18:17
14,2:10
14,3:10
14,13:37
14,15:37
14,16:37
14,17:37
14,18:20
14,19:20
14,20:20
14,21:20
14,22:20
14,23:20
14,24:20
15,2:27
15,3:27
15,14:37
15,18:17
16,2:27
16,3:27
16,14:37
16,18:17
16,19:17
16,20:17
16,21:17
16,22:17
16,23:17
16,24:17
16,25:17
16,26:17
16,27:17
16,28:17
16,29:17
16,30:17
16,31:17
16,32:17
16,33:17
16,34:17
17,2:27
17,3:27
17,14:37
17,18:17
17,19:17
18,2:10
18,3:10
18,14:20
18,15:17
18,16:17
18,17:17
18,38:3
18,39:3
18,40:3
18,41:3
18,42:3
19,2:10
19,3:10
19,14:20
19,16:17
20,2:10
20,3:10
20,14:20
20,16:17
21,2:10
21,3:10
21,14:20
21,16:17
22,2:10
22,3:10
22,16:17
23,2:10
23,3:10
23,14:20
23,16:17
24,2:10
24,3:10
24,14:20
24,16:17
25,2:10
25,3:10
25,16:17
26,2:10
26,3:10
26,16:17
27,2:10
27,3:10
27,16:17
28,2:10
28,3:10
28,16:17
29,2:10
29,3:10
30,2:10
30,3:10
31,2:10
31,3:10
32,2:10
32,3:10
32,16:17
33,2:10
33,3:10
33,16:17
34,2:10
34,3:10
34,16:17
35,2:10
35,3:10
37,38:3
37,39:3
37,40:3
38,18:3
39,18:3
40,18:3
41,18:3
42,46:22
42,47:22
43,46:22
43,47:22
43,48:22
43,49:22
43,50:22
44,46:22
44,47:22
44,48:22
44,49:22
44,50:22
45,46:22
45,47:22
45,48:22
45,49:22
45,50:22
45,51:22
45,52:22
46,43:22
46,44:22
46,45:22
47,43:22
47,44:22
47,45:22
48,44:22
48,45:22
49,43:22
49,45:22
50,43:22
50,44:22
50,45:22

<setup times backward>
2,14:10
3,14:10
6,1:27
6,2:27
6,3:27
6,4:27
6,5:27
6,7:27
6,8:27
9,1:27
9,2:27
9,3:27
9,4:27
9,5:27
9,7:27
9,8:27
10,1:27
10,2:27
10,3:27
10,4:27
10,5:27
10,7:27
10,8:27
11,1:27
11,2:27
11,3:27
11,4:27
11,5:27
11,7:27
11,8:27
12,1:27
12,2:27
12,3:27
12,4:27
12,5:27
12,7:27
12,8:27
13,1:27
13,2:27
13,3:27
13,4:27
13,5:27
13,7:27
13,8:27
13,14:37
15,1:27
15,2:27
15,3:27
15,4:27
15,5:27
15,7:27
15,8:27
15,14:37
15,18:17
16,1:27
16,2:27
16,3:27
16,4:27
16,5:27
16,7:27
16,8:27
16,14:37
16,18:17
16,19:17
16,20:17
16,21:17
16,22:17
16,23:17
16,24:17
16,25:17
16,26:17
16,27:17
16,28:17
16,32:17
16,33:17
16,34:17
17,1:27
17,2:27
17,3:27
17,4:27
17,5:27
17,7:27
17,8:27
17,14:37
17,18:17
18,1:10
18,2:10
18,3:10
18,4:10
18,5:10
18,7:10
18,8:10
18,14:20
18,38:3
18,39:3
18,40:3
18,41:3
19,1:10
19,2:10
19,3:10
19,4:10
19,5:10
19,7:10
19,8:10
19,14:20
20,1:10
20,2:10
20,3:10
20,4:10
20,5:10
20,7:10
20,8:10
20,14:20
21,1:10
21,2:10
21,3:10
21,4:10
21,5:10
21,7:10
21,8:10
21,14:20
22,1:10
22,2:10
22,3:10
22,4:10
22,5:10
22,7:10
22,8:10
22,14:20
23,1:10
23,2:10
23,3:10
23,4:10
23,5:10
23,7:10
23,8:10
23,14:20
24,1:10
24,2:10
24,3:10
24,4:10
24,5:10
24,7:10
24,8:10
24,14:20
25,1:10
25,2:10
25,3:10
25,4:10
25,5:10
25,7:10
25,8:10
25,14:20
26,1:10
26,2:10
26,3:10
26,4:10
26,5:10
26,7:10
26,8:10
26,14:20
27,1:10
27,2:10
27,3:10
27,4:10
27,5:10
27,7:10
27,8:10
27,14:20
28,1:10
28,2:10
28,3:10
28,4:10
28,5:10
28,7:10
28,8:10
28,14:20
29,1:10
29,2:10
29,3:10
29,4:10
29,5:10
29,7:10
29,8:10
29,14:20
30,1:10
30,2:10
30,3:10
30,4:10
30,5:10
30,7:10
30,8:10
30,14:20
31,1:10
31,2:10
31,3:10
31,4:10
31,5:10
31,7:10
31,8:10
31,14:20
32,1:10
32,2:10
32,3:10
32,4:10
32,5:10
32,7:10
32,8:10
32,14:20
33,1:10
33,2:10
33,3:10
33,4:10
33,5:10
33,7:10
33,8:10
33,14:20
34,1:10
34,2:10
34,3:10
34,4:10
34,5:10
34,7:10
34,8:10
34,14:20
35,1:10
35,2:10
35,3:10
35,4:10
35,5:10
35,7:10
35,8:10
35,14:20
36,1:10
36,2:10
36,3:10
36,4:10
36,5:10
36,7:10
36,8:10
36,14:20
37,1:10
37,2:10
37,3:10
37,4:10
37,5:10
37,7:10
37,8:10
37,14:20
38,1:7
38,2:7
38,3:7
38,4:7
38,5:7
38,7:7
38,8:7
38,14:17
39,1:7
39,2:7
39,3:7
39,4:7
39,5:7
39,7:7
39,8:7
39,14:17
40,1:7
40,2:7
40,3:7
40,4:7
40,5:7
40,7:7
40,8:7
40,14:17
41,1:7
41,2:7
41,3:7
41,4:7
41,5:7
41,7:7
41,8:7
41,14:17
42,1:7
42,2:7
42,3:7
42,4:7
42,5:7
42,7:7
42,8:7
42,14:17
43,1:7
43,2:7
43,3:7
43,4:7
43,5:7
43,7:7
43,8:7
43,14:17
43,46:22
43,47:22
43,49:22
43,50:22
44,1:7
44,2:7
44,3:7
44,4:7
44,5:7
44,7:7
44,8:7
44,14:17
44,46:22
44,47:22
44,48:22
44,50:22
45,1:7
45,2:7
45,3:7
45,4:7
45,5:7
45,7:7
45,8:7
45,14:17
45,46:22
45,47:22
45,48:22
45,49:22
45,50:22

<end>

<optimal SALBP-1 value>
6


<rand seed>
467321153

<Lower Bounds>
Lm1=5
Lms1=5
Lm2=2
Lm3=3
Lm4=5
Best=5

<Optimal Stations (Iterations: 10)>
6
